\ Model matlab
\ LP format - for model browsing. Use MPS format to capture full model detail.
Minimize
  C0
Subject To
 R0: C1 + C3 = -0.3962671701134451
 R1: C2 + C4 = -0.5481672772171253
 R2: C1 + C5 = -0.557014496279959
 R3: C2 + C6 = 0.6288425399327536
 R4: C1 + C7 = -0.8792108064728388
 R5: C2 + C8 = -0.5472978193273543
 R6: C1 + C9 = 0.2028794144041459
 R7: C2 + C10 = -1.514094187345638
 R8: C1 + C11 = -0.9317636559538526
 R9: C2 + C12 = -0.3845980430228012
 R10: C1 + C13 = 1.138523370131767
 R11: C2 + C14 = -0.9283604744706385
 R12: C1 + C15 = 1.903827205259941
 R13: C2 + C16 = 1.502185388662275
 R14: C1 + C17 = 1.434753615280197
 R15: C2 + C18 = 0.1427271705859968
 R16: C1 + C19 = 1.564347380641018
 R17: C2 + C20 = -1.738999394316161
 R18: C1 + C21 = -0.8119285568891019
 R19: C2 + C22 = -0.0508670012583259
 R20: C1 + C23 = -2.260314241107011
 R21: C2 + C24 = -0.2986130466965574
 R22: C1 + C25 = -1.626685365432776
 R23: C2 + C26 = -0.5932915318001227
 R24: C1 + C27 = 0.0738145018809512
 R25: C2 + C28 = -0.1806663891007711
 R26: C1 + C29 = 0.6809223295638682
 R27: C2 + C30 = -0.9823299613868397
 R28: C1 + C31 = 0.1097223205975823
 R29: C2 + C32 = 1.123107624833164
 R30: C1 + C33 = 0.1641949734758695
 R31: C2 + C34 = 0.9318604024897624
 R32: C1 + C35 = -2.402111897932238
 R33: C2 + C36 = 0.2246781094612086
 R34: C1 + C37 = -1.545256636746855
 R35: C2 + C38 = 1.368554081315283
 R36: C1 + C39 = -0.0756800948569141
 R37: C2 + C40 = 1.094012665439872
 R38: C1 + C41 = -0.3057993773565308
 R39: C2 + C42 = 1.742670680700156
 R40: C1 + C43 = 1.288234199382195
 R41: C2 + C44 = 0.1189065831201957
 R42: C1 + C45 = 0.8672665269495208
 R43: C2 + C46 = -0.5413261404054494
 R44: C1 + C47 = -0.1083242399399928
 R45: C2 + C48 = -0.4441054915384931
 R46: C1 + C49 = -1.332261949922687
 R47: C2 + C50 = -0.2984785780500046
 R48: C1 + C51 = 0.280631302562584
 R49: C2 + C52 = 0.1479607915376465
 R50: C1 + C53 = -1.398004821918639
 R51: C2 + C54 = 1.331465174383235
 R52: C1 + C55 = -0.5379274135389479
 R53: C2 + C56 = -0.3386551248384636
 R54: C1 + C57 = 0.6785348743953483
 R55: C2 + C58 = 0.0640875336745364
 R56: C1 + C59 = -0.1898197317234392
 R57: C2 + C60 = 1.22539477495791
 R58: C1 + C61 = 1.113708805564727
 R59: C2 + C62 = -1.278584462819413
 R60: C1 + C63 = 0.7946083795827034
 R61: C2 + C64 = -0.5222918727265331
 R62: C1 + C65 = -0.5322454640292846
 R63: C2 + C66 = -0.47434834001813
 R64: C1 + C67 = -0.049683976288186
 R65: C2 + C68 = 0.2287864600400228
 R66: C1 + C69 = 0.3799431368658299
 R67: C2 + C70 = 0.1384620467132583
 R68: C1 + C71 = -0.087975052845593
 R69: C2 + C72 = -0.939507615212783
 R70: C1 + C73 = -1.28666164012743
 R71: C2 + C74 = -1.193457872566728
 R72: C1 + C75 = 0.8177048199251208
 R73: C2 + C76 = -0.2351410889526756
 R74: C1 + C77 = -1.658612436653814
 R75: C2 + C78 = -0.3912462350124089
 R76: C1 + C79 = -0.2440640377025317
 R77: C2 + C80 = 1.061128609591862
 R78: C1 + C81 = 1.644988703322458
 R79: C2 + C82 = -0.1146110982152666
 R80: C1 + C83 = 0.8679147048102655
 R81: C2 + C84 = -0.5434311818964077
 R82: C1 + C85 = -1.383906132780598
 R83: C2 + C86 = -0.958164528629083
 R84: C1 + C87 = 1.54428048998288
 R85: C2 + C88 = -0.1020993247740584
 R86: C1 + C89 = 0.7669314787285072
 R87: C2 + C90 = 0.7455018927119375
 R88: C1 + C91 = 0.205375590878483
 R89: C2 + C92 = 0.7929991051482371
 R90: C1 + C93 = -0.7634530040873417
 R91: C2 + C94 = 0.9120919824521975
 R92: C1 + C95 = -1.182432739003599
 R93: C2 + C96 = -1.208151457524588
 R94: C1 + C97 = 0.1720863065168327
 R95: C2 + C98 = -0.3080309639172054
 R96: C1 + C99 = 0.395765594903054
 R97: C2 + C100 = 1.076643425443769
 R98: C1 + C101 = 0.5054593298015286
 R99: C2 + C102 = 0.1953256779558752
 R100: C1 + C103 = 0.2652271195102814
 R101: C2 + C104 = -0.5752459305145695
 R102: C1 + C105 = 0.087988576532616
 R103: C2 + C106 = -0.5992628231413076
 R104: C1 + C107 = 0.2287603464816382
 R105: C2 + C108 = -2.377989961630063
 R106: C1 + C109 = 1.074435089132924
 R107: C2 + C110 = 0.3332374661229669
 R108: C1 + C111 = -1.343147505249962
 R109: C2 + C112 = -0.7993421587919236
 R110: C1 + C113 = 0.0368636694686032
 R111: C2 + C114 = -0.5691822471478719
 R112: C1 + C115 = -0.2838313997373889
 R113: C2 + C116 = -0.8991810240440702
 R114: C1 + C117 = 1.70170630681305
 R115: C2 + C118 = 1.861246731688849
 R116: C1 + C119 = 0.2225000050483845
 R117: C2 + C120 = 1.642313427000643
 R118: C1 + C121 = 2.002903125147302
 R119: C2 + C122 = 0.9947710705227092
 R120: C1 + C123 = -0.2636638591678968
 R121: C2 + C124 = 0.0751359694763016
 R122: C1 + C125 = 1.096206448702229
 R123: C2 + C126 = -0.733903448370131
 R124: C1 + C127 = -0.5064439046522131
 R125: C2 + C128 = 0.0657835656375985
 R126: C1 + C129 = 1.104497731758609
 R127: C2 + C130 = 0.960132604294302
 R128: C1 + C131 = -0.1162408473426292
 R129: C2 + C132 = -0.4645744528892645
 R130: C1 + C133 = 0.0816572585892186
 R131: C2 + C134 = -0.3742198809638321
 R132: C1 + C135 = -0.3993512763557272
 R133: C2 + C136 = -1.435997024922499
 R134: C1 + C137 = -1.071865833589071
 R135: C2 + C138 = 1.369718520221988
 R136: C1 + C139 = -1.087460431809557
 R137: C2 + C140 = 0.732588605026379
 R138: C1 + C141 = -1.03229446176728
 R139: C2 + C142 = 0.3969035470857012
 R140: C1 + C143 = 0.8450223844047883
 R141: C2 + C144 = 0.9926047074893675
 R142: C1 + C145 = 0.2431357652663218
 R143: C2 + C146 = -1.14344602914706
 R144: C1 + C147 = 0.7139474583600343
 R145: C2 + C148 = -1.056755622801265
 R146: C1 + C149 = -0.3107066487556573
 R147: C2 + C150 = -1.176699111967437
 R148: C1 + C151 = 0.3456808703743714
 R149: C2 + C152 = 0.1360758123925865
 R150: C1 + C153 = -0.771826895419236
 R151: C2 + C154 = -0.969733661180837
 R152: C1 + C155 = 0.5795390816947903
 R153: C2 + C156 = 0.7309618429632319
 R154: C1 + C157 = -0.9056354929806111
 R155: C2 + C158 = 1.039663979975112
 R156: C1 + C159 = -0.0946929301529521
 R157: C2 + C160 = 0.0658198135808092
 R158: C1 + C161 = -0.1658055636159262
 R159: C2 + C162 = -1.36946267472129
 R160: C1 + C163 = -0.0912318888818684
 R161: C2 + C164 = -0.242563683283977
 R162: C1 + C165 = 1.175919762283026
 R163: C2 + C166 = 0.811969821842271
 R164: C1 + C167 = 0.5332209785385098
 R165: C2 + C168 = -1.969019918755484
 R166: C1 + C169 = 1.580456745177849
 R167: C2 + C170 = 0.522315969605001
 R168: C1 + C171 = 0.5710782433926016
 R169: C2 + C172 = 0.3810466278405854
 R170: C1 + C173 = -2.14090293070432
 R171: C2 + C174 = 0.915401985799545
 R172: C1 + C175 = 0.0272657785322827
 R173: C2 + C176 = 0.8518916150635574
 R174: C1 + C177 = 0.9105488359998515
 R175: C2 + C178 = 1.867509531351224
 R176: C1 + C179 = -1.300300635860658
 R177: C2 + C180 = -1.868191517296997
 R178: C1 + C181 = -2.21779978162238
 R179: C2 + C182 = 0.7926329069097137
 R180: C1 + C183 = 0.2272320559554229
 R181: C2 + C184 = 1.199587515662696
 R182: C1 + C185 = -0.2141339318504081
 R183: C2 + C186 = 0.7638895983151396
 R184: C1 + C187 = -0.3584609681909911
 R185: C2 + C188 = 0.5388524960885937
 R186: C1 + C189 = -1.273952424721776
 R187: C2 + C190 = 3.422256022911082
 R188: C1 + C191 = 1.628819866399622
 R189: C2 + C192 = 0.9087458106874534
 R190: C1 + C193 = 1.466755630953454
 R191: C2 + C194 = 2.095962738005193
 R192: C1 + C195 = 0.995381766930505
 R193: C2 + C196 = 1.104287148980274
 R194: C1 + C197 = 1.792160544268432
 R195: C2 + C198 = -0.3073427240414643
 R196: C1 + C199 = -0.8917192414356531
 R197: C2 + C200 = -0.1202728889149018
 R198: C1 + C201 = 0.1915199001273685
 R199: C2 + C202 = 0.9084846527412547
 qc0: [ - C0 ^2 + C3 ^2 + C4 ^2 ] <= 0
 qc1: [ - C0 ^2 + C5 ^2 + C6 ^2 ] <= 0
 qc2: [ - C0 ^2 + C7 ^2 + C8 ^2 ] <= 0
 qc3: [ - C0 ^2 + C9 ^2 + C10 ^2 ] <= 0
 qc4: [ - C0 ^2 + C11 ^2 + C12 ^2 ] <= 0
 qc5: [ - C0 ^2 + C13 ^2 + C14 ^2 ] <= 0
 qc6: [ - C0 ^2 + C15 ^2 + C16 ^2 ] <= 0
 qc7: [ - C0 ^2 + C17 ^2 + C18 ^2 ] <= 0
 qc8: [ - C0 ^2 + C19 ^2 + C20 ^2 ] <= 0
 qc9: [ - C0 ^2 + C21 ^2 + C22 ^2 ] <= 0
 qc10: [ - C0 ^2 + C23 ^2 + C24 ^2 ] <= 0
 qc11: [ - C0 ^2 + C25 ^2 + C26 ^2 ] <= 0
 qc12: [ - C0 ^2 + C27 ^2 + C28 ^2 ] <= 0
 qc13: [ - C0 ^2 + C29 ^2 + C30 ^2 ] <= 0
 qc14: [ - C0 ^2 + C31 ^2 + C32 ^2 ] <= 0
 qc15: [ - C0 ^2 + C33 ^2 + C34 ^2 ] <= 0
 qc16: [ - C0 ^2 + C35 ^2 + C36 ^2 ] <= 0
 qc17: [ - C0 ^2 + C37 ^2 + C38 ^2 ] <= 0
 qc18: [ - C0 ^2 + C39 ^2 + C40 ^2 ] <= 0
 qc19: [ - C0 ^2 + C41 ^2 + C42 ^2 ] <= 0
 qc20: [ - C0 ^2 + C43 ^2 + C44 ^2 ] <= 0
 qc21: [ - C0 ^2 + C45 ^2 + C46 ^2 ] <= 0
 qc22: [ - C0 ^2 + C47 ^2 + C48 ^2 ] <= 0
 qc23: [ - C0 ^2 + C49 ^2 + C50 ^2 ] <= 0
 qc24: [ - C0 ^2 + C51 ^2 + C52 ^2 ] <= 0
 qc25: [ - C0 ^2 + C53 ^2 + C54 ^2 ] <= 0
 qc26: [ - C0 ^2 + C55 ^2 + C56 ^2 ] <= 0
 qc27: [ - C0 ^2 + C57 ^2 + C58 ^2 ] <= 0
 qc28: [ - C0 ^2 + C59 ^2 + C60 ^2 ] <= 0
 qc29: [ - C0 ^2 + C61 ^2 + C62 ^2 ] <= 0
 qc30: [ - C0 ^2 + C63 ^2 + C64 ^2 ] <= 0
 qc31: [ - C0 ^2 + C65 ^2 + C66 ^2 ] <= 0
 qc32: [ - C0 ^2 + C67 ^2 + C68 ^2 ] <= 0
 qc33: [ - C0 ^2 + C69 ^2 + C70 ^2 ] <= 0
 qc34: [ - C0 ^2 + C71 ^2 + C72 ^2 ] <= 0
 qc35: [ - C0 ^2 + C73 ^2 + C74 ^2 ] <= 0
 qc36: [ - C0 ^2 + C75 ^2 + C76 ^2 ] <= 0
 qc37: [ - C0 ^2 + C77 ^2 + C78 ^2 ] <= 0
 qc38: [ - C0 ^2 + C79 ^2 + C80 ^2 ] <= 0
 qc39: [ - C0 ^2 + C81 ^2 + C82 ^2 ] <= 0
 qc40: [ - C0 ^2 + C83 ^2 + C84 ^2 ] <= 0
 qc41: [ - C0 ^2 + C85 ^2 + C86 ^2 ] <= 0
 qc42: [ - C0 ^2 + C87 ^2 + C88 ^2 ] <= 0
 qc43: [ - C0 ^2 + C89 ^2 + C90 ^2 ] <= 0
 qc44: [ - C0 ^2 + C91 ^2 + C92 ^2 ] <= 0
 qc45: [ - C0 ^2 + C93 ^2 + C94 ^2 ] <= 0
 qc46: [ - C0 ^2 + C95 ^2 + C96 ^2 ] <= 0
 qc47: [ - C0 ^2 + C97 ^2 + C98 ^2 ] <= 0
 qc48: [ - C0 ^2 + C99 ^2 + C100 ^2 ] <= 0
 qc49: [ - C0 ^2 + C101 ^2 + C102 ^2 ] <= 0
 qc50: [ - C0 ^2 + C103 ^2 + C104 ^2 ] <= 0
 qc51: [ - C0 ^2 + C105 ^2 + C106 ^2 ] <= 0
 qc52: [ - C0 ^2 + C107 ^2 + C108 ^2 ] <= 0
 qc53: [ - C0 ^2 + C109 ^2 + C110 ^2 ] <= 0
 qc54: [ - C0 ^2 + C111 ^2 + C112 ^2 ] <= 0
 qc55: [ - C0 ^2 + C113 ^2 + C114 ^2 ] <= 0
 qc56: [ - C0 ^2 + C115 ^2 + C116 ^2 ] <= 0
 qc57: [ - C0 ^2 + C117 ^2 + C118 ^2 ] <= 0
 qc58: [ - C0 ^2 + C119 ^2 + C120 ^2 ] <= 0
 qc59: [ - C0 ^2 + C121 ^2 + C122 ^2 ] <= 0
 qc60: [ - C0 ^2 + C123 ^2 + C124 ^2 ] <= 0
 qc61: [ - C0 ^2 + C125 ^2 + C126 ^2 ] <= 0
 qc62: [ - C0 ^2 + C127 ^2 + C128 ^2 ] <= 0
 qc63: [ - C0 ^2 + C129 ^2 + C130 ^2 ] <= 0
 qc64: [ - C0 ^2 + C131 ^2 + C132 ^2 ] <= 0
 qc65: [ - C0 ^2 + C133 ^2 + C134 ^2 ] <= 0
 qc66: [ - C0 ^2 + C135 ^2 + C136 ^2 ] <= 0
 qc67: [ - C0 ^2 + C137 ^2 + C138 ^2 ] <= 0
 qc68: [ - C0 ^2 + C139 ^2 + C140 ^2 ] <= 0
 qc69: [ - C0 ^2 + C141 ^2 + C142 ^2 ] <= 0
 qc70: [ - C0 ^2 + C143 ^2 + C144 ^2 ] <= 0
 qc71: [ - C0 ^2 + C145 ^2 + C146 ^2 ] <= 0
 qc72: [ - C0 ^2 + C147 ^2 + C148 ^2 ] <= 0
 qc73: [ - C0 ^2 + C149 ^2 + C150 ^2 ] <= 0
 qc74: [ - C0 ^2 + C151 ^2 + C152 ^2 ] <= 0
 qc75: [ - C0 ^2 + C153 ^2 + C154 ^2 ] <= 0
 qc76: [ - C0 ^2 + C155 ^2 + C156 ^2 ] <= 0
 qc77: [ - C0 ^2 + C157 ^2 + C158 ^2 ] <= 0
 qc78: [ - C0 ^2 + C159 ^2 + C160 ^2 ] <= 0
 qc79: [ - C0 ^2 + C161 ^2 + C162 ^2 ] <= 0
 qc80: [ - C0 ^2 + C163 ^2 + C164 ^2 ] <= 0
 qc81: [ - C0 ^2 + C165 ^2 + C166 ^2 ] <= 0
 qc82: [ - C0 ^2 + C167 ^2 + C168 ^2 ] <= 0
 qc83: [ - C0 ^2 + C169 ^2 + C170 ^2 ] <= 0
 qc84: [ - C0 ^2 + C171 ^2 + C172 ^2 ] <= 0
 qc85: [ - C0 ^2 + C173 ^2 + C174 ^2 ] <= 0
 qc86: [ - C0 ^2 + C175 ^2 + C176 ^2 ] <= 0
 qc87: [ - C0 ^2 + C177 ^2 + C178 ^2 ] <= 0
 qc88: [ - C0 ^2 + C179 ^2 + C180 ^2 ] <= 0
 qc89: [ - C0 ^2 + C181 ^2 + C182 ^2 ] <= 0
 qc90: [ - C0 ^2 + C183 ^2 + C184 ^2 ] <= 0
 qc91: [ - C0 ^2 + C185 ^2 + C186 ^2 ] <= 0
 qc92: [ - C0 ^2 + C187 ^2 + C188 ^2 ] <= 0
 qc93: [ - C0 ^2 + C189 ^2 + C190 ^2 ] <= 0
 qc94: [ - C0 ^2 + C191 ^2 + C192 ^2 ] <= 0
 qc95: [ - C0 ^2 + C193 ^2 + C194 ^2 ] <= 0
 qc96: [ - C0 ^2 + C195 ^2 + C196 ^2 ] <= 0
 qc97: [ - C0 ^2 + C197 ^2 + C198 ^2 ] <= 0
 qc98: [ - C0 ^2 + C199 ^2 + C200 ^2 ] <= 0
 qc99: [ - C0 ^2 + C201 ^2 + C202 ^2 ] <= 0
Bounds
 C0 <= 1e+08
 -1e+08 <= C1 <= 1e+08
 -1e+08 <= C2 <= 1e+08
 -1e+08 <= C3 <= 1e+08
 -1e+08 <= C4 <= 1e+08
 -1e+08 <= C5 <= 1e+08
 -1e+08 <= C6 <= 1e+08
 -1e+08 <= C7 <= 1e+08
 -1e+08 <= C8 <= 1e+08
 -1e+08 <= C9 <= 1e+08
 -1e+08 <= C10 <= 1e+08
 -1e+08 <= C11 <= 1e+08
 -1e+08 <= C12 <= 1e+08
 -1e+08 <= C13 <= 1e+08
 -1e+08 <= C14 <= 1e+08
 -1e+08 <= C15 <= 1e+08
 -1e+08 <= C16 <= 1e+08
 -1e+08 <= C17 <= 1e+08
 -1e+08 <= C18 <= 1e+08
 -1e+08 <= C19 <= 1e+08
 -1e+08 <= C20 <= 1e+08
 -1e+08 <= C21 <= 1e+08
 -1e+08 <= C22 <= 1e+08
 -1e+08 <= C23 <= 1e+08
 -1e+08 <= C24 <= 1e+08
 -1e+08 <= C25 <= 1e+08
 -1e+08 <= C26 <= 1e+08
 -1e+08 <= C27 <= 1e+08
 -1e+08 <= C28 <= 1e+08
 -1e+08 <= C29 <= 1e+08
 -1e+08 <= C30 <= 1e+08
 -1e+08 <= C31 <= 1e+08
 -1e+08 <= C32 <= 1e+08
 -1e+08 <= C33 <= 1e+08
 -1e+08 <= C34 <= 1e+08
 -1e+08 <= C35 <= 1e+08
 -1e+08 <= C36 <= 1e+08
 -1e+08 <= C37 <= 1e+08
 -1e+08 <= C38 <= 1e+08
 -1e+08 <= C39 <= 1e+08
 -1e+08 <= C40 <= 1e+08
 -1e+08 <= C41 <= 1e+08
 -1e+08 <= C42 <= 1e+08
 -1e+08 <= C43 <= 1e+08
 -1e+08 <= C44 <= 1e+08
 -1e+08 <= C45 <= 1e+08
 -1e+08 <= C46 <= 1e+08
 -1e+08 <= C47 <= 1e+08
 -1e+08 <= C48 <= 1e+08
 -1e+08 <= C49 <= 1e+08
 -1e+08 <= C50 <= 1e+08
 -1e+08 <= C51 <= 1e+08
 -1e+08 <= C52 <= 1e+08
 -1e+08 <= C53 <= 1e+08
 -1e+08 <= C54 <= 1e+08
 -1e+08 <= C55 <= 1e+08
 -1e+08 <= C56 <= 1e+08
 -1e+08 <= C57 <= 1e+08
 -1e+08 <= C58 <= 1e+08
 -1e+08 <= C59 <= 1e+08
 -1e+08 <= C60 <= 1e+08
 -1e+08 <= C61 <= 1e+08
 -1e+08 <= C62 <= 1e+08
 -1e+08 <= C63 <= 1e+08
 -1e+08 <= C64 <= 1e+08
 -1e+08 <= C65 <= 1e+08
 -1e+08 <= C66 <= 1e+08
 -1e+08 <= C67 <= 1e+08
 -1e+08 <= C68 <= 1e+08
 -1e+08 <= C69 <= 1e+08
 -1e+08 <= C70 <= 1e+08
 -1e+08 <= C71 <= 1e+08
 -1e+08 <= C72 <= 1e+08
 -1e+08 <= C73 <= 1e+08
 -1e+08 <= C74 <= 1e+08
 -1e+08 <= C75 <= 1e+08
 -1e+08 <= C76 <= 1e+08
 -1e+08 <= C77 <= 1e+08
 -1e+08 <= C78 <= 1e+08
 -1e+08 <= C79 <= 1e+08
 -1e+08 <= C80 <= 1e+08
 -1e+08 <= C81 <= 1e+08
 -1e+08 <= C82 <= 1e+08
 -1e+08 <= C83 <= 1e+08
 -1e+08 <= C84 <= 1e+08
 -1e+08 <= C85 <= 1e+08
 -1e+08 <= C86 <= 1e+08
 -1e+08 <= C87 <= 1e+08
 -1e+08 <= C88 <= 1e+08
 -1e+08 <= C89 <= 1e+08
 -1e+08 <= C90 <= 1e+08
 -1e+08 <= C91 <= 1e+08
 -1e+08 <= C92 <= 1e+08
 -1e+08 <= C93 <= 1e+08
 -1e+08 <= C94 <= 1e+08
 -1e+08 <= C95 <= 1e+08
 -1e+08 <= C96 <= 1e+08
 -1e+08 <= C97 <= 1e+08
 -1e+08 <= C98 <= 1e+08
 -1e+08 <= C99 <= 1e+08
 -1e+08 <= C100 <= 1e+08
 -1e+08 <= C101 <= 1e+08
 -1e+08 <= C102 <= 1e+08
 -1e+08 <= C103 <= 1e+08
 -1e+08 <= C104 <= 1e+08
 -1e+08 <= C105 <= 1e+08
 -1e+08 <= C106 <= 1e+08
 -1e+08 <= C107 <= 1e+08
 -1e+08 <= C108 <= 1e+08
 -1e+08 <= C109 <= 1e+08
 -1e+08 <= C110 <= 1e+08
 -1e+08 <= C111 <= 1e+08
 -1e+08 <= C112 <= 1e+08
 -1e+08 <= C113 <= 1e+08
 -1e+08 <= C114 <= 1e+08
 -1e+08 <= C115 <= 1e+08
 -1e+08 <= C116 <= 1e+08
 -1e+08 <= C117 <= 1e+08
 -1e+08 <= C118 <= 1e+08
 -1e+08 <= C119 <= 1e+08
 -1e+08 <= C120 <= 1e+08
 -1e+08 <= C121 <= 1e+08
 -1e+08 <= C122 <= 1e+08
 -1e+08 <= C123 <= 1e+08
 -1e+08 <= C124 <= 1e+08
 -1e+08 <= C125 <= 1e+08
 -1e+08 <= C126 <= 1e+08
 -1e+08 <= C127 <= 1e+08
 -1e+08 <= C128 <= 1e+08
 -1e+08 <= C129 <= 1e+08
 -1e+08 <= C130 <= 1e+08
 -1e+08 <= C131 <= 1e+08
 -1e+08 <= C132 <= 1e+08
 -1e+08 <= C133 <= 1e+08
 -1e+08 <= C134 <= 1e+08
 -1e+08 <= C135 <= 1e+08
 -1e+08 <= C136 <= 1e+08
 -1e+08 <= C137 <= 1e+08
 -1e+08 <= C138 <= 1e+08
 -1e+08 <= C139 <= 1e+08
 -1e+08 <= C140 <= 1e+08
 -1e+08 <= C141 <= 1e+08
 -1e+08 <= C142 <= 1e+08
 -1e+08 <= C143 <= 1e+08
 -1e+08 <= C144 <= 1e+08
 -1e+08 <= C145 <= 1e+08
 -1e+08 <= C146 <= 1e+08
 -1e+08 <= C147 <= 1e+08
 -1e+08 <= C148 <= 1e+08
 -1e+08 <= C149 <= 1e+08
 -1e+08 <= C150 <= 1e+08
 -1e+08 <= C151 <= 1e+08
 -1e+08 <= C152 <= 1e+08
 -1e+08 <= C153 <= 1e+08
 -1e+08 <= C154 <= 1e+08
 -1e+08 <= C155 <= 1e+08
 -1e+08 <= C156 <= 1e+08
 -1e+08 <= C157 <= 1e+08
 -1e+08 <= C158 <= 1e+08
 -1e+08 <= C159 <= 1e+08
 -1e+08 <= C160 <= 1e+08
 -1e+08 <= C161 <= 1e+08
 -1e+08 <= C162 <= 1e+08
 -1e+08 <= C163 <= 1e+08
 -1e+08 <= C164 <= 1e+08
 -1e+08 <= C165 <= 1e+08
 -1e+08 <= C166 <= 1e+08
 -1e+08 <= C167 <= 1e+08
 -1e+08 <= C168 <= 1e+08
 -1e+08 <= C169 <= 1e+08
 -1e+08 <= C170 <= 1e+08
 -1e+08 <= C171 <= 1e+08
 -1e+08 <= C172 <= 1e+08
 -1e+08 <= C173 <= 1e+08
 -1e+08 <= C174 <= 1e+08
 -1e+08 <= C175 <= 1e+08
 -1e+08 <= C176 <= 1e+08
 -1e+08 <= C177 <= 1e+08
 -1e+08 <= C178 <= 1e+08
 -1e+08 <= C179 <= 1e+08
 -1e+08 <= C180 <= 1e+08
 -1e+08 <= C181 <= 1e+08
 -1e+08 <= C182 <= 1e+08
 -1e+08 <= C183 <= 1e+08
 -1e+08 <= C184 <= 1e+08
 -1e+08 <= C185 <= 1e+08
 -1e+08 <= C186 <= 1e+08
 -1e+08 <= C187 <= 1e+08
 -1e+08 <= C188 <= 1e+08
 -1e+08 <= C189 <= 1e+08
 -1e+08 <= C190 <= 1e+08
 -1e+08 <= C191 <= 1e+08
 -1e+08 <= C192 <= 1e+08
 -1e+08 <= C193 <= 1e+08
 -1e+08 <= C194 <= 1e+08
 -1e+08 <= C195 <= 1e+08
 -1e+08 <= C196 <= 1e+08
 -1e+08 <= C197 <= 1e+08
 -1e+08 <= C198 <= 1e+08
 -1e+08 <= C199 <= 1e+08
 -1e+08 <= C200 <= 1e+08
 -1e+08 <= C201 <= 1e+08
 -1e+08 <= C202 <= 1e+08
End
 <= C202 <= 1e+08
End
